\ SCIP STATISTICS
\   Problem name     : CapacitatedFacilityLocation-20-10
\   Variables        : 210 (210 binary, 0 integer, 0 implicit integer, 0 continuous)
\   Constraints      : 231
Minimize
 Obj: +1342.8466041712 x0 +815.102355330306 x1 +713.104642674349 x2 +814.65617611571 x3 +1287.58595060509 x4
      +705.491205974634 x5 +838.868444170853 x6 +1400.03905618077 x7 +426.282201390401 x8 +1131.47095739997 x9
      +176.798070536796 x10 +112.063634718836 x11 +115.422414216243 x12 +281.993313388575 x13 +130.554272190774 x14
      +32.1329309355201 x15 +143.237181165254 x16 +315.848891894888 x17 +219.413265046352 x18 +179.640167342971 x19
      +65.2403897036574 x20 +55.7087382958672 x21 +15.5137627345062 x22 +82.3458123602294 x23 +38.2676225535833 x24
      +39.743349893076 x25 +11.9286159944482 x26 +91.5364004645533 x27 +74.5159292684095 x28 +51.9214958770111 x29
      +29.4387178949906 x30 +110.556498879427 x31 +212.61449664596 x32 +122.04343004701 x33 +123.656545215426 x34
      +92.3851052073432 x35 +209.5227855381 x36 +143.68928427355 x37 +62.8385968330138 x38 +111.706602467914 x39
      +25.8034023560585 x40 +29.6226069104715 x41 +57.3322324607732 x42 +56.8438217788987 x43 +35.4214520636159 x44
      +15.7035666908131 x45 +58.5564794060237 x46 +65.5301158908674 x47 +37.8110838904364 x48 +39.2679904663601 x49
      +21.4020162330162 x50 +83.1781282683464 x51 +117.985040588342 x52 +47.5072486878134 x53 +52.6756909546276 x54
      +61.8224827773288 x55 +106.531677037465 x56 +66.5104391344426 x57 +37.2116607498197 x58 +35.190133668182 x59
      +36.7654364228281 x60 +68.1041381240774 x61 +76.8270349526905 x62 +58.4423538570134 x63 +19.4346350698586 x64
      +40.3799015337172 x65 +63.573224015203 x66 +75.2638389264652 x67 +51.6374446243135 x68 +14.6192309115087 x69
      +90.5064125795026 x70 +6.82528504857691 x71 +102.333703188736 x72 +147.609698094829 x73 +111.657252201339 x74
      +50.6706151049833 x75 +127.401756856221 x76 +155.533614128449 x77 +104.05273293889 x78 +125.601459749348 x79
      +34.7764418308022 x80 +9.4236237122026 x81 +43.2433588518485 x82 +52.7639058679294 x83 +46.634559368419 x84
      +26.7637821022271 x85 +52.497088717028 x86 +53.5761678245029 x87 +37.3145777043864 x88 +50.0522354868243 x89
      +98.3635362629776 x90 +65.851978184011 x91 +84.7686848041813 x92 +164.770569106543 x93 +77.1479085469501 x94
      +7.43635138588015 x95 +97.2484983510715 x96 +185.775571999074 x97 +125.167268773803 x98 +104.299812109367 x99
      +84.3751473799465 x100 +19.8869782415591 x101 +72.5198283802902 x102 +132.34390982897 x103 +91.054251439905 x104
      +39.5106798942266 x105 +96.6274043538721 x106 +140.728006944901 x107 +97.5558963673506 x108 +106.463944767689 x109
      +109.784992786918 x110 +127.388166266332 x111 +82.8896710358858 x112 +138.258932761696 x113 +31.4194646487878 x114
      +78.2203372042326 x115 +44.2230929880422 x116 +163.840586346759 x117 +131.542183791278 x118 +58.8089838437062 x119
      +13.757731564074 x120 +43.7225724369978 x121 +92.1394087708301 x122 +51.2170375642718 x123 +58.2051220992678 x124
      +41.9537771260252 x125 +92.6283242186872 x126 +57.8090588015005 x127 +23.3443392374924 x128 +53.0915383008231 x129
      +113.088440833373 x130 +82.3031772318151 x131 +34.9336325535595 x132 +164.020663526894 x133 +67.9497544906833 x134
      +41.4059039767395 x135 +49.971624281621 x136 +183.888963809895 x137 +136.054130097325 x138 +99.8339939057486 x139
      +167.14420012371 x140 +304.147194266536 x141 +321.160132862984 x142 +149.426879252648 x143 +134.707422376313 x144
      +229.190998730736 x145 +259.973306350351 x146 +206.883454068929 x147 +190.442913504725 x148 +71.1640361688948 x149
      +58.0469351103156 x150 +58.1620655500775 x151 +34.0306932710374 x152 +81.2481425894274 x153 +19.487778643573 x154
      +29.5490591839421 x155 +20.9563612296547 x156 +94.5683881511697 x157 +71.3615372173824 x158 +38.9869484715758 x159
      +51.8487988911597 x160 +47.5070710707774 x161 +16.9687364022112 x162 +65.3011669243365 x163 +26.925068769749 x164
      +32.1119632690437 x165 +4.47363356619169 x166 +73.5928762019249 x167 +59.8388952868534 x168 +38.3915323589167 x169
      +37.0577029596905 x170 +9.82847951401976 x171 +62.4638258622254 x172 +64.4344039285052 x173 +57.7973352709957 x174
      +30.5836990874262 x175 +71.9929155665489 x176 +66.6841093696819 x177 +41.5741319409457 x178 +60.9962256209199 x179
      +26.3050601306947 x180 +50.3048453132391 x181 +118.48660842584 x182 +76.2571560281438 x183 +79.2581332706968 x184
      +51.5947477855167 x185 +121.734622408532 x186 +84.2657728073065 x187 +38.1867640887522 x188 +75.451395614185 x189
      +90.6902642054229 x190 +42.5084795986153 x191 +43.0246909626229 x192 +134.628661557734 x193 +77.6056040152985 x194
      +35.6645332684382 x195 +69.4961385738416 x196 +145.817387047756 x197 +105.883685324291 x198 +97.8140078004056 x199
      +128.9193976787 x200 +172.658124210744 x201 +142.160388870646 x202 +130.460158949585 x203 +73.7252470088358 x204
      +128.775271029839 x205 +102.337942503774 x206 +156.744047887329 x207 +144.196627263526 x208 +69.3749383843438 x209
Subject to
 c0: +1 x10 +1 x11 +1 x12 +1 x13 +1 x14 +1 x15 +1 x16 +1 x17 +1 x18 +1 x19 >= +1
 c1: +1 x20 +1 x21 +1 x22 +1 x23 +1 x24 +1 x25 +1 x26 +1 x27 +1 x28 +1 x29 >= +1
 c2: +1 x30 +1 x31 +1 x32 +1 x33 +1 x34 +1 x35 +1 x36 +1 x37 +1 x38 +1 x39 >= +1
 c3: +1 x40 +1 x41 +1 x42 +1 x43 +1 x44 +1 x45 +1 x46 +1 x47 +1 x48 +1 x49 >= +1
 c4: +1 x50 +1 x51 +1 x52 +1 x53 +1 x54 +1 x55 +1 x56 +1 x57 +1 x58 +1 x59 >= +1
 c5: +1 x60 +1 x61 +1 x62 +1 x63 +1 x64 +1 x65 +1 x66 +1 x67 +1 x68 +1 x69 >= +1
 c6: +1 x70 +1 x71 +1 x72 +1 x73 +1 x74 +1 x75 +1 x76 +1 x77 +1 x78 +1 x79 >= +1
 c7: +1 x80 +1 x81 +1 x82 +1 x83 +1 x84 +1 x85 +1 x86 +1 x87 +1 x88 +1 x89 >= +1
 c8: +1 x90 +1 x91 +1 x92 +1 x93 +1 x94 +1 x95 +1 x96 +1 x97 +1 x98 +1 x99 >= +1
 c9: +1 x100 +1 x101 +1 x102 +1 x103 +1 x104 +1 x105 +1 x106 +1 x107 +1 x108 +1 x109 >= +1
 c10: +1 x110 +1 x111 +1 x112 +1 x113 +1 x114 +1 x115 +1 x116 +1 x117 +1 x118 +1 x119 >= +1
 c11: +1 x120 +1 x121 +1 x122 +1 x123 +1 x124 +1 x125 +1 x126 +1 x127 +1 x128 +1 x129 >= +1
 c12: +1 x130 +1 x131 +1 x132 +1 x133 +1 x134 +1 x135 +1 x136 +1 x137 +1 x138 +1 x139 >= +1
 c13: +1 x140 +1 x141 +1 x142 +1 x143 +1 x144 +1 x145 +1 x146 +1 x147 +1 x148 +1 x149 >= +1
 c14: +1 x150 +1 x151 +1 x152 +1 x153 +1 x154 +1 x155 +1 x156 +1 x157 +1 x158 +1 x159 >= +1
 c15: +1 x160 +1 x161 +1 x162 +1 x163 +1 x164 +1 x165 +1 x166 +1 x167 +1 x168 +1 x169 >= +1
 c16: +1 x170 +1 x171 +1 x172 +1 x173 +1 x174 +1 x175 +1 x176 +1 x177 +1 x178 +1 x179 >= +1
 c17: +1 x180 +1 x181 +1 x182 +1 x183 +1 x184 +1 x185 +1 x186 +1 x187 +1 x188 +1 x189 >= +1
 c18: +1 x190 +1 x191 +1 x192 +1 x193 +1 x194 +1 x195 +1 x196 +1 x197 +1 x198 +1 x199 >= +1
 c19: +1 x200 +1 x201 +1 x202 +1 x203 +1 x204 +1 x205 +1 x206 +1 x207 +1 x208 +1 x209 >= +1
 c20: +35 x10 +7 x20 +29 x30 +10 x40 +15 x50 +12 x60 +18 x70 +6 x80 +22 x90 +15 x100 +17 x110 +12 x120
  +18 x130 +35 x140 +10 x150 +6 x160 +9 x170 +16 x180 +14 x190 +16 x200 -275 x0 <= +0
 c21: +35 x11 +7 x21 +29 x31 +10 x41 +15 x51 +12 x61 +18 x71 +6 x81 +22 x91 +15 x101 +17 x111 +12 x121
  +18 x131 +35 x141 +10 x151 +6 x161 +9 x171 +16 x181 +14 x191 +16 x201 -98 x1 <= +0
 c22: +35 x12 +7 x22 +29 x32 +10 x42 +15 x52 +12 x62 +18 x72 +6 x82 +22 x92 +15 x102 +17 x112 +12 x122
  +18 x132 +35 x142 +10 x152 +6 x162 +9 x172 +16 x182 +14 x192 +16 x202 -82 x2 <= +0
 c23: +35 x13 +7 x23 +29 x33 +10 x43 +15 x53 +12 x63 +18 x73 +6 x83 +22 x93 +15 x103 +17 x113 +12 x123
  +18 x133 +35 x143 +10 x153 +6 x163 +9 x173 +16 x183 +14 x193 +16 x203 -118 x3 <= +0
 c24: +35 x14 +7 x24 +29 x34 +10 x44 +15 x54 +12 x64 +18 x74 +6 x84 +22 x94 +15 x104 +17 x114 +12 x124
  +18 x134 +35 x144 +10 x154 +6 x164 +9 x174 +16 x184 +14 x194 +16 x204 -265 x4 <= +0
 c25: +35 x15 +7 x25 +29 x35 +10 x45 +15 x55 +12 x65 +18 x75 +6 x85 +22 x95 +15 x105 +17 x115 +12 x125
  +18 x135 +35 x145 +10 x155 +6 x165 +9 x175 +16 x185 +14 x195 +16 x205 -90 x5 <= +0
 c26: +35 x16 +7 x26 +29 x36 +10 x46 +15 x56 +12 x66 +18 x76 +6 x86 +22 x96 +15 x106 +17 x116 +12 x126
  +18 x136 +35 x146 +10 x156 +6 x166 +9 x176 +16 x186 +14 x196 +16 x206 -112 x6 <= +0
 c27: +35 x17 +7 x27 +29 x37 +10 x47 +15 x57 +12 x67 +18 x77 +6 x87 +22 x97 +15 x107 +17 x117 +12 x127
  +18 x137 +35 x147 +10 x157 +6 x167 +9 x177 +16 x187 +14 x197 +16 x207 -316 x7 <= +0
 c28: +35 x18 +7 x28 +29 x38 +10 x48 +15 x58 +12 x68 +18 x78 +6 x88 +22 x98 +15 x108 +17 x118 +12 x128
  +18 x138 +35 x148 +10 x158 +6 x168 +9 x178 +16 x188 +14 x198 +16 x208 -31 x8 <= +0
 c29: +35 x19 +7 x29 +29 x39 +10 x49 +15 x59 +12 x69 +18 x79 +6 x89 +22 x99 +15 x109 +17 x119 +12 x129
  +18 x139 +35 x149 +10 x159 +6 x169 +9 x179 +16 x189 +14 x199 +16 x209 -222 x9 <= +0
 c30: +275 x0 +98 x1 +82 x2 +118 x3 +265 x4 +90 x5 +112 x6 +316 x7 +31 x8 +222 x9 >= +322
 c31: +1 x10 -1 x0 <= +0
 c32: +1 x11 -1 x1 <= +0
 c33: +1 x12 -1 x2 <= +0
 c34: +1 x13 -1 x3 <= +0
 c35: +1 x14 -1 x4 <= +0
 c36: +1 x15 -1 x5 <= +0
 c37: +1 x16 -1 x6 <= +0
 c38: +1 x17 -1 x7 <= +0
 c39: +1 x18 -1 x8 <= +0
 c40: +1 x19 -1 x9 <= +0
 c41: +1 x20 -1 x0 <= +0
 c42: +1 x21 -1 x1 <= +0
 c43: +1 x22 -1 x2 <= +0
 c44: +1 x23 -1 x3 <= +0
 c45: +1 x24 -1 x4 <= +0
 c46: +1 x25 -1 x5 <= +0
 c47: +1 x26 -1 x6 <= +0
 c48: +1 x27 -1 x7 <= +0
 c49: +1 x28 -1 x8 <= +0
 c50: +1 x29 -1 x9 <= +0
 c51: +1 x30 -1 x0 <= +0
 c52: +1 x31 -1 x1 <= +0
 c53: +1 x32 -1 x2 <= +0
 c54: +1 x33 -1 x3 <= +0
 c55: +1 x34 -1 x4 <= +0
 c56: +1 x35 -1 x5 <= +0
 c57: +1 x36 -1 x6 <= +0
 c58: +1 x37 -1 x7 <= +0
 c59: +1 x38 -1 x8 <= +0
 c60: +1 x39 -1 x9 <= +0
 c61: +1 x40 -1 x0 <= +0
 c62: +1 x41 -1 x1 <= +0
 c63: +1 x42 -1 x2 <= +0
 c64: +1 x43 -1 x3 <= +0
 c65: +1 x44 -1 x4 <= +0
 c66: +1 x45 -1 x5 <= +0
 c67: +1 x46 -1 x6 <= +0
 c68: +1 x47 -1 x7 <= +0
 c69: +1 x48 -1 x8 <= +0
 c70: +1 x49 -1 x9 <= +0
 c71: +1 x50 -1 x0 <= +0
 c72: +1 x51 -1 x1 <= +0
 c73: +1 x52 -1 x2 <= +0
 c74: +1 x53 -1 x3 <= +0
 c75: +1 x54 -1 x4 <= +0
 c76: +1 x55 -1 x5 <= +0
 c77: +1 x56 -1 x6 <= +0
 c78: +1 x57 -1 x7 <= +0
 c79: +1 x58 -1 x8 <= +0
 c80: +1 x59 -1 x9 <= +0
 c81: +1 x60 -1 x0 <= +0
 c82: +1 x61 -1 x1 <= +0
 c83: +1 x62 -1 x2 <= +0
 c84: +1 x63 -1 x3 <= +0
 c85: +1 x64 -1 x4 <= +0
 c86: +1 x65 -1 x5 <= +0
 c87: +1 x66 -1 x6 <= +0
 c88: +1 x67 -1 x7 <= +0
 c89: +1 x68 -1 x8 <= +0
 c90: +1 x69 -1 x9 <= +0
 c91: +1 x70 -1 x0 <= +0
 c92: +1 x71 -1 x1 <= +0
 c93: +1 x72 -1 x2 <= +0
 c94: +1 x73 -1 x3 <= +0
 c95: +1 x74 -1 x4 <= +0
 c96: +1 x75 -1 x5 <= +0
 c97: +1 x76 -1 x6 <= +0
 c98: +1 x77 -1 x7 <= +0
 c99: +1 x78 -1 x8 <= +0
 c100: +1 x79 -1 x9 <= +0
 c101: +1 x80 -1 x0 <= +0
 c102: +1 x81 -1 x1 <= +0
 c103: +1 x82 -1 x2 <= +0
 c104: +1 x83 -1 x3 <= +0
 c105: +1 x84 -1 x4 <= +0
 c106: +1 x85 -1 x5 <= +0
 c107: +1 x86 -1 x6 <= +0
 c108: +1 x87 -1 x7 <= +0
 c109: +1 x88 -1 x8 <= +0
 c110: +1 x89 -1 x9 <= +0
 c111: +1 x90 -1 x0 <= +0
 c112: +1 x91 -1 x1 <= +0
 c113: +1 x92 -1 x2 <= +0
 c114: +1 x93 -1 x3 <= +0
 c115: +1 x94 -1 x4 <= +0
 c116: +1 x95 -1 x5 <= +0
 c117: +1 x96 -1 x6 <= +0
 c118: +1 x97 -1 x7 <= +0
 c119: +1 x98 -1 x8 <= +0
 c120: +1 x99 -1 x9 <= +0
 c121: +1 x100 -1 x0 <= +0
 c122: +1 x101 -1 x1 <= +0
 c123: +1 x102 -1 x2 <= +0
 c124: +1 x103 -1 x3 <= +0
 c125: +1 x104 -1 x4 <= +0
 c126: +1 x105 -1 x5 <= +0
 c127: +1 x106 -1 x6 <= +0
 c128: +1 x107 -1 x7 <= +0
 c129: +1 x108 -1 x8 <= +0
 c130: +1 x109 -1 x9 <= +0
 c131: +1 x110 -1 x0 <= +0
 c132: +1 x111 -1 x1 <= +0
 c133: +1 x112 -1 x2 <= +0
 c134: +1 x113 -1 x3 <= +0
 c135: +1 x114 -1 x4 <= +0
 c136: +1 x115 -1 x5 <= +0
 c137: +1 x116 -1 x6 <= +0
 c138: +1 x117 -1 x7 <= +0
 c139: +1 x118 -1 x8 <= +0
 c140: +1 x119 -1 x9 <= +0
 c141: +1 x120 -1 x0 <= +0
 c142: +1 x121 -1 x1 <= +0
 c143: +1 x122 -1 x2 <= +0
 c144: +1 x123 -1 x3 <= +0
 c145: +1 x124 -1 x4 <= +0
 c146: +1 x125 -1 x5 <= +0
 c147: +1 x126 -1 x6 <= +0
 c148: +1 x127 -1 x7 <= +0
 c149: +1 x128 -1 x8 <= +0
 c150: +1 x129 -1 x9 <= +0
 c151: +1 x130 -1 x0 <= +0
 c152: +1 x131 -1 x1 <= +0
 c153: +1 x132 -1 x2 <= +0
 c154: +1 x133 -1 x3 <= +0
 c155: +1 x134 -1 x4 <= +0
 c156: +1 x135 -1 x5 <= +0
 c157: +1 x136 -1 x6 <= +0
 c158: +1 x137 -1 x7 <= +0
 c159: +1 x138 -1 x8 <= +0
 c160: +1 x139 -1 x9 <= +0
 c161: +1 x140 -1 x0 <= +0
 c162: +1 x141 -1 x1 <= +0
 c163: +1 x142 -1 x2 <= +0
 c164: +1 x143 -1 x3 <= +0
 c165: +1 x144 -1 x4 <= +0
 c166: +1 x145 -1 x5 <= +0
 c167: +1 x146 -1 x6 <= +0
 c168: +1 x147 -1 x7 <= +0
 c169: +1 x148 -1 x8 <= +0
 c170: +1 x149 -1 x9 <= +0
 c171: +1 x150 -1 x0 <= +0
 c172: +1 x151 -1 x1 <= +0
 c173: +1 x152 -1 x2 <= +0
 c174: +1 x153 -1 x3 <= +0
 c175: +1 x154 -1 x4 <= +0
 c176: +1 x155 -1 x5 <= +0
 c177: +1 x156 -1 x6 <= +0
 c178: +1 x157 -1 x7 <= +0
 c179: +1 x158 -1 x8 <= +0
 c180: +1 x159 -1 x9 <= +0
 c181: +1 x160 -1 x0 <= +0
 c182: +1 x161 -1 x1 <= +0
 c183: +1 x162 -1 x2 <= +0
 c184: +1 x163 -1 x3 <= +0
 c185: +1 x164 -1 x4 <= +0
 c186: +1 x165 -1 x5 <= +0
 c187: +1 x166 -1 x6 <= +0
 c188: +1 x167 -1 x7 <= +0
 c189: +1 x168 -1 x8 <= +0
 c190: +1 x169 -1 x9 <= +0
 c191: +1 x170 -1 x0 <= +0
 c192: +1 x171 -1 x1 <= +0
 c193: +1 x172 -1 x2 <= +0
 c194: +1 x173 -1 x3 <= +0
 c195: +1 x174 -1 x4 <= +0
 c196: +1 x175 -1 x5 <= +0
 c197: +1 x176 -1 x6 <= +0
 c198: +1 x177 -1 x7 <= +0
 c199: +1 x178 -1 x8 <= +0
 c200: +1 x179 -1 x9 <= +0
 c201: +1 x180 -1 x0 <= +0
 c202: +1 x181 -1 x1 <= +0
 c203: +1 x182 -1 x2 <= +0
 c204: +1 x183 -1 x3 <= +0
 c205: +1 x184 -1 x4 <= +0
 c206: +1 x185 -1 x5 <= +0
 c207: +1 x186 -1 x6 <= +0
 c208: +1 x187 -1 x7 <= +0
 c209: +1 x188 -1 x8 <= +0
 c210: +1 x189 -1 x9 <= +0
 c211: +1 x190 -1 x0 <= +0
 c212: +1 x191 -1 x1 <= +0
 c213: +1 x192 -1 x2 <= +0
 c214: +1 x193 -1 x3 <= +0
 c215: +1 x194 -1 x4 <= +0
 c216: +1 x195 -1 x5 <= +0
 c217: +1 x196 -1 x6 <= +0
 c218: +1 x197 -1 x7 <= +0
 c219: +1 x198 -1 x8 <= +0
 c220: +1 x199 -1 x9 <= +0
 c221: +1 x200 -1 x0 <= +0
 c222: +1 x201 -1 x1 <= +0
 c223: +1 x202 -1 x2 <= +0
 c224: +1 x203 -1 x3 <= +0
 c225: +1 x204 -1 x4 <= +0
 c226: +1 x205 -1 x5 <= +0
 c227: +1 x206 -1 x6 <= +0
 c228: +1 x207 -1 x7 <= +0
 c229: +1 x208 -1 x8 <= +0
 c230: +1 x209 -1 x9 <= +0
Bounds
 0 <= x0 <= 1
 0 <= x1 <= 1
 0 <= x2 <= 1
 0 <= x3 <= 1
 0 <= x4 <= 1
 0 <= x5 <= 1
 0 <= x6 <= 1
 0 <= x7 <= 1
 0 <= x8 <= 1
 0 <= x9 <= 1
 0 <= x10 <= 1
 0 <= x11 <= 1
 0 <= x12 <= 1
 0 <= x13 <= 1
 0 <= x14 <= 1
 0 <= x15 <= 1
 0 <= x16 <= 1
 0 <= x17 <= 1
 0 <= x18 <= 1
 0 <= x19 <= 1
 0 <= x20 <= 1
 0 <= x21 <= 1
 0 <= x22 <= 1
 0 <= x23 <= 1
 0 <= x24 <= 1
 0 <= x25 <= 1
 0 <= x26 <= 1
 0 <= x27 <= 1
 0 <= x28 <= 1
 0 <= x29 <= 1
 0 <= x30 <= 1
 0 <= x31 <= 1
 0 <= x32 <= 1
 0 <= x33 <= 1
 0 <= x34 <= 1
 0 <= x35 <= 1
 0 <= x36 <= 1
 0 <= x37 <= 1
 0 <= x38 <= 1
 0 <= x39 <= 1
 0 <= x40 <= 1
 0 <= x41 <= 1
 0 <= x42 <= 1
 0 <= x43 <= 1
 0 <= x44 <= 1
 0 <= x45 <= 1
 0 <= x46 <= 1
 0 <= x47 <= 1
 0 <= x48 <= 1
 0 <= x49 <= 1
 0 <= x50 <= 1
 0 <= x51 <= 1
 0 <= x52 <= 1
 0 <= x53 <= 1
 0 <= x54 <= 1
 0 <= x55 <= 1
 0 <= x56 <= 1
 0 <= x57 <= 1
 0 <= x58 <= 1
 0 <= x59 <= 1
 0 <= x60 <= 1
 0 <= x61 <= 1
 0 <= x62 <= 1
 0 <= x63 <= 1
 0 <= x64 <= 1
 0 <= x65 <= 1
 0 <= x66 <= 1
 0 <= x67 <= 1
 0 <= x68 <= 1
 0 <= x69 <= 1
 0 <= x70 <= 1
 0 <= x71 <= 1
 0 <= x72 <= 1
 0 <= x73 <= 1
 0 <= x74 <= 1
 0 <= x75 <= 1
 0 <= x76 <= 1
 0 <= x77 <= 1
 0 <= x78 <= 1
 0 <= x79 <= 1
 0 <= x80 <= 1
 0 <= x81 <= 1
 0 <= x82 <= 1
 0 <= x83 <= 1
 0 <= x84 <= 1
 0 <= x85 <= 1
 0 <= x86 <= 1
 0 <= x87 <= 1
 0 <= x88 <= 1
 0 <= x89 <= 1
 0 <= x90 <= 1
 0 <= x91 <= 1
 0 <= x92 <= 1
 0 <= x93 <= 1
 0 <= x94 <= 1
 0 <= x95 <= 1
 0 <= x96 <= 1
 0 <= x97 <= 1
 0 <= x98 <= 1
 0 <= x99 <= 1
 0 <= x100 <= 1
 0 <= x101 <= 1
 0 <= x102 <= 1
 0 <= x103 <= 1
 0 <= x104 <= 1
 0 <= x105 <= 1
 0 <= x106 <= 1
 0 <= x107 <= 1
 0 <= x108 <= 1
 0 <= x109 <= 1
 0 <= x110 <= 1
 0 <= x111 <= 1
 0 <= x112 <= 1
 0 <= x113 <= 1
 0 <= x114 <= 1
 0 <= x115 <= 1
 0 <= x116 <= 1
 0 <= x117 <= 1
 0 <= x118 <= 1
 0 <= x119 <= 1
 0 <= x120 <= 1
 0 <= x121 <= 1
 0 <= x122 <= 1
 0 <= x123 <= 1
 0 <= x124 <= 1
 0 <= x125 <= 1
 0 <= x126 <= 1
 0 <= x127 <= 1
 0 <= x128 <= 1
 0 <= x129 <= 1
 0 <= x130 <= 1
 0 <= x131 <= 1
 0 <= x132 <= 1
 0 <= x133 <= 1
 0 <= x134 <= 1
 0 <= x135 <= 1
 0 <= x136 <= 1
 0 <= x137 <= 1
 0 <= x138 <= 1
 0 <= x139 <= 1
 0 <= x140 <= 1
 0 <= x141 <= 1
 0 <= x142 <= 1
 0 <= x143 <= 1
 0 <= x144 <= 1
 0 <= x145 <= 1
 0 <= x146 <= 1
 0 <= x147 <= 1
 0 <= x148 <= 1
 0 <= x149 <= 1
 0 <= x150 <= 1
 0 <= x151 <= 1
 0 <= x152 <= 1
 0 <= x153 <= 1
 0 <= x154 <= 1
 0 <= x155 <= 1
 0 <= x156 <= 1
 0 <= x157 <= 1
 0 <= x158 <= 1
 0 <= x159 <= 1
 0 <= x160 <= 1
 0 <= x161 <= 1
 0 <= x162 <= 1
 0 <= x163 <= 1
 0 <= x164 <= 1
 0 <= x165 <= 1
 0 <= x166 <= 1
 0 <= x167 <= 1
 0 <= x168 <= 1
 0 <= x169 <= 1
 0 <= x170 <= 1
 0 <= x171 <= 1
 0 <= x172 <= 1
 0 <= x173 <= 1
 0 <= x174 <= 1
 0 <= x175 <= 1
 0 <= x176 <= 1
 0 <= x177 <= 1
 0 <= x178 <= 1
 0 <= x179 <= 1
 0 <= x180 <= 1
 0 <= x181 <= 1
 0 <= x182 <= 1
 0 <= x183 <= 1
 0 <= x184 <= 1
 0 <= x185 <= 1
 0 <= x186 <= 1
 0 <= x187 <= 1
 0 <= x188 <= 1
 0 <= x189 <= 1
 0 <= x190 <= 1
 0 <= x191 <= 1
 0 <= x192 <= 1
 0 <= x193 <= 1
 0 <= x194 <= 1
 0 <= x195 <= 1
 0 <= x196 <= 1
 0 <= x197 <= 1
 0 <= x198 <= 1
 0 <= x199 <= 1
 0 <= x200 <= 1
 0 <= x201 <= 1
 0 <= x202 <= 1
 0 <= x203 <= 1
 0 <= x204 <= 1
 0 <= x205 <= 1
 0 <= x206 <= 1
 0 <= x207 <= 1
 0 <= x208 <= 1
 0 <= x209 <= 1
Binaries
 x0 x1 x2 x3 x4 x5 x6 x7 x8 x9 x10 x11 x12 x13 x14 x15 x16 x17 x18 x19 x20 x21 x22 x23 x24 x25 x26 x27
 x28 x29 x30 x31 x32 x33 x34 x35 x36 x37 x38 x39 x40 x41 x42 x43 x44 x45 x46 x47 x48 x49 x50 x51 x52 x53
 x54 x55 x56 x57 x58 x59 x60 x61 x62 x63 x64 x65 x66 x67 x68 x69 x70 x71 x72 x73 x74 x75 x76 x77 x78 x79
 x80 x81 x82 x83 x84 x85 x86 x87 x88 x89 x90 x91 x92 x93 x94 x95 x96 x97 x98 x99 x100 x101 x102 x103 x104
 x105 x106 x107 x108 x109 x110 x111 x112 x113 x114 x115 x116 x117 x118 x119 x120 x121 x122 x123 x124 x125
 x126 x127 x128 x129 x130 x131 x132 x133 x134 x135 x136 x137 x138 x139 x140 x141 x142 x143 x144 x145 x146
 x147 x148 x149 x150 x151 x152 x153 x154 x155 x156 x157 x158 x159 x160 x161 x162 x163 x164 x165 x166 x167
 x168 x169 x170 x171 x172 x173 x174 x175 x176 x177 x178 x179 x180 x181 x182 x183 x184 x185 x186 x187 x188
 x189 x190 x191 x192 x193 x194 x195 x196 x197 x198 x199 x200 x201 x202 x203 x204 x205 x206 x207 x208 x209
End
